c 
c MolecularSimulation 0.9.3
c Simulation written: Jan 13 2012 -- 15:17:57
c Test: Distribution
c Input: ./data/testCNF/SWEEP_R6_K3_N20_M116_S000.cnf
c 
s UNSATISFIABLE
v 0
c algorithmTime:  402
c solutionMemory: 0
c mixCount:       345
c extractCount:   0
c appendCount:    5151512
c splitCount:     345
c spliceCount:    2352542
c purifyCount:    115
c 
